id: 1358
name: vpphard2
group: miplib2010
method: 2

Gurobi 7.0.2 (linux64, Matlab) logging started Mon Mar 26 10:24:15 2018


Gurobi 7.0.2 (linux64) logging started Mon Mar 26 10:24:15 2018

Optimize a model with 198450 rows, 199999 columns and 648340 nonzeros
Coefficient statistics:
  Matrix range     [1e+00, 1e+00]
  Objective range  [1e+00, 1e+00]
  Bounds range     [1e+00, 1e+00]
  RHS range        [1e+00, 8e+00]
Presolve removed 62051 rows and 60765 columns
Presolve time: 0.18s
Presolved: 136399 rows, 139234 columns, 561958 nonzeros

Ordering time: 1.95s

Barrier statistics:
 Dense cols : 817
 AA' NZ     : 1.065e+07
 Factor NZ  : 2.487e+07 (roughly 300 MBytes of memory)
 Factor Ops : 9.911e+09 (less than 1 second per iteration)
 Threads    : 4

                  Objective                Residual
Iter       Primal          Dual         Primal    Dual     Compl     Time
   0   7.97535461e+05 -8.28701868e+04  6.51e+02 0.00e+00  6.73e+00     3s
   1   7.64288604e+05 -8.77697724e+04  6.12e+02 5.82e+00  6.31e+00     3s
   2   7.43303781e+05 -8.94416425e+04  5.88e+02 4.48e+00  6.08e+00     4s
   3   7.43264966e+05 -8.94440232e+04  5.88e+02 4.65e+00  6.08e+00     4s
   4   7.41561480e+05 -8.96897764e+04  5.86e+02 5.54e+00  6.06e+00     5s
   5   6.62249056e+05 -9.27491313e+04  4.97e+02 6.69e+00  5.31e+00     5s
   6   4.34750894e+05 -1.16763306e+05  2.65e+02 2.16e+01  3.05e+00     6s
   7   1.76220437e+05 -1.23592321e+05  6.86e+01 5.98e+01  9.50e-01     6s
   8   5.00474985e+04 -2.15940346e+04  1.39e+01 4.16e+00  1.76e-01     7s
   9   2.21172003e+04 -1.08557285e+04  7.00e+00 8.54e+00  8.02e-02     8s
  10   2.13276223e+04 -1.06044427e+04  6.77e+00 7.68e+00  7.77e-02     8s
  11   1.66146185e+04 -8.95554641e+03  5.36e+00 5.68e+00  6.22e-02     8s
  12   1.56134901e+04 -8.54282344e+03  5.06e+00 6.51e+00  5.87e-02     9s
  13   1.35927388e+04 -6.93230887e+03  4.42e+00 6.98e+00  4.99e-02     9s
  14   1.27854594e+04 -6.23560937e+03  4.18e+00 7.20e+00  4.62e-02    10s
  15   8.32383406e+03 -4.74991875e+03  2.78e+00 5.17e+00  3.17e-02    10s
  16   8.24241889e+03 -4.73649577e+03  2.76e+00 5.19e+00  3.15e-02    11s
  17   7.75375122e+03 -4.62718630e+03  2.60e+00 5.25e+00  3.00e-02    11s
  18   5.92824583e+03 -3.58547662e+03  2.01e+00 3.95e+00  2.31e-02    11s
  19   5.92822982e+03 -3.58528635e+03  2.01e+00 3.97e+00  2.31e-02    12s
  20   5.90427003e+03 -3.57290525e+03  2.00e+00 3.87e+00  2.30e-02    12s
  21   5.90268613e+03 -3.57218753e+03  2.00e+00 3.98e+00  2.30e-02    12s
  22   5.90268931e+03 -3.57260485e+03  2.00e+00 3.98e+00  2.30e-02    13s
  23   5.83975627e+03 -3.38247944e+03  1.98e+00 4.02e+00  2.23e-02    13s
  24   5.78578273e+03 -3.36878736e+03  1.96e+00 4.03e+00  2.22e-02    14s
  25   5.78543510e+03 -3.36877026e+03  1.96e+00 4.38e+00  2.22e-02    14s
  26   5.77523650e+03 -3.36231066e+03  1.96e+00 4.43e+00  2.21e-02    15s
  27   5.56076492e+03 -3.20645122e+03  1.89e+00 4.15e+00  2.12e-02    15s
  28   5.54391522e+03 -3.17497787e+03  1.88e+00 3.98e+00  2.11e-02    16s
  29   5.53897292e+03 -3.15957965e+03  1.88e+00 4.36e+00  2.11e-02    16s
  30   5.53875279e+03 -3.15886610e+03  1.88e+00 4.36e+00  2.11e-02    16s
  31   5.52530333e+03 -3.14213582e+03  1.88e+00 4.49e+00  2.10e-02    17s
  32   3.95171823e+03 -2.54415987e+03  1.32e+00 3.46e+00  1.57e-02    18s
  33   3.61982915e+03 -2.49024004e+03  1.21e+00 3.39e+00  1.48e-02    18s
  34   3.58224556e+03 -2.46924818e+03  1.20e+00 3.36e+00  1.47e-02    19s
  35   3.53626808e+03 -2.43256763e+03  1.19e+00 3.61e+00  1.45e-02    19s
  36   3.05087947e+03 -2.20358013e+03  1.03e+00 3.36e+00  1.27e-02    19s
  37   2.89626767e+03 -1.89883128e+03  9.78e-01 3.63e+00  1.16e-02    20s
  38   2.82572134e+03 -1.86202827e+03  9.54e-01 3.10e+00  1.13e-02    20s
  39   2.75694818e+03 -1.80127570e+03  9.32e-01 3.05e+00  1.10e-02    21s
  40   2.69558456e+03 -1.68846606e+03  9.11e-01 2.97e+00  1.06e-02    21s
  41   2.68447047e+03 -1.67743634e+03  9.07e-01 2.96e+00  1.06e-02    22s
  42   2.68269133e+03 -1.67621801e+03  9.07e-01 2.95e+00  1.06e-02    22s
  43   2.49053448e+03 -1.56276842e+03  8.42e-01 3.09e+00  9.81e-03    23s
  44   2.49053356e+03 -1.56267085e+03  8.42e-01 3.05e+00  9.81e-03    23s
  45   2.35960069e+03 -1.44884351e+03  7.96e-01 2.89e+00  9.22e-03    23s
  46   2.35951938e+03 -1.44875696e+03  7.96e-01 2.89e+00  9.22e-03    24s
  47   2.35939177e+03 -1.44877188e+03  7.96e-01 2.89e+00  9.22e-03    24s
  48   2.33623324e+03 -1.44072800e+03  7.88e-01 2.88e+00  9.14e-03    25s
  49   1.18605974e+03 -5.10556541e+02  4.00e-01 9.65e-01  4.10e-03    25s
  50   9.87302901e+02 -3.79919492e+02  3.33e-01 7.15e-01  3.30e-03    26s
  51   9.86605234e+02 -3.79546865e+02  3.33e-01 7.14e-01  3.30e-03    26s
  52   8.98950440e+02 -3.68872253e+02  3.03e-01 6.89e-01  3.06e-03    27s
  53   8.82374219e+02 -3.62600909e+02  2.98e-01 6.81e-01  3.01e-03    27s
  54   8.81717754e+02 -3.62332552e+02  2.97e-01 6.81e-01  3.01e-03    28s
  55   8.35481760e+02 -3.26805356e+02  2.82e-01 5.98e-01  2.81e-03    28s
  56   8.07718983e+02 -3.16106147e+02  2.72e-01 5.78e-01  2.72e-03    28s
  57   7.55848102e+02 -2.95668042e+02  2.55e-01 5.41e-01  2.54e-03    29s
  58   7.40968531e+02 -2.87406684e+02  2.50e-01 5.25e-01  2.49e-03    29s
  59   6.60106296e+02 -2.65982603e+02  2.23e-01 4.86e-01  2.24e-03    30s
  60   6.34554733e+02 -2.54652292e+02  2.14e-01 4.71e-01  2.15e-03    30s
  61   5.91340075e+02 -2.45866535e+02  2.00e-01 4.61e-01  2.02e-03    30s
  62   5.05442309e+02 -2.36623678e+02  1.71e-01 4.48e-01  1.79e-03    31s
  63   4.75797389e+02 -2.28395032e+02  1.61e-01 4.36e-01  1.70e-03    31s
  64   1.05128579e+02 -1.01932161e+02  3.55e-02 1.94e-01  5.01e-04    31s
  65   1.01511917e+02 -9.70875473e+01  3.43e-02 1.85e-01  4.80e-04    32s
  66   8.98240971e+01 -8.28261895e+01  3.03e-02 1.58e-01  4.17e-04    32s
  67   6.76372709e+01 -7.93657268e+01  2.28e-02 1.52e-01  3.55e-04    32s
  68   5.45557810e+01 -7.11480348e+01  1.84e-02 1.36e-01  3.04e-04    33s
  69   5.44217840e+01 -7.10119862e+01  1.84e-02 1.36e-01  3.03e-04    33s
  70   4.45517449e+01 -6.98353302e+01  9.78e-03 9.05e-02  2.77e-04    33s
  71   4.02382617e+01 -5.98971652e+01  8.83e-03 7.76e-02  2.42e-04    34s
  72   3.97125083e+01 -5.66647459e+01  8.71e-03 7.34e-02  2.33e-04    34s
  73   2.37152557e+01 -3.73609926e+01  5.20e-03 4.83e-02  1.48e-04    34s
  74   2.22217333e+01 -3.25941747e+01  4.87e-03 4.21e-02  1.32e-04    34s
  75   1.49491218e+01 -2.47718278e+01  3.27e-03 3.20e-02  9.60e-05    35s
  76   2.11467512e+00 -1.78840727e+01  4.58e-04 2.31e-02  4.84e-05    35s
  77   6.02715169e-01 -1.28358204e+01  1.31e-04 1.66e-02  3.25e-05    35s
  78   1.25180040e-01 -4.46718323e+00  2.71e-05 5.77e-03  1.11e-05    36s
  79   2.82668823e-05 -1.49806883e-03  1.04e-08 1.93e-06  3.69e-09    36s
  80   4.05858868e-09 -8.16015517e-07  1.59e-12 1.06e-09  1.98e-12    36s
  81   2.24632231e-14 -4.38859986e-12  1.05e-13 7.13e-15  1.33e-17    36s

Barrier solved model in 81 iterations and 36.48 seconds
Optimal objective 2.24632231e-14

Crossover log...

       1 DPushes remaining with DInf 0.0000000e+00                37s
       0 DPushes remaining with DInf 0.0000000e+00                37s

    2831 PPushes remaining with PInf 0.0000000e+00                37s
       0 PPushes remaining with PInf 0.0000000e+00                37s

  Push phase complete: Pinf 0.0000000e+00, Dinf 0.0000000e+00     37s

Iteration    Objective       Primal Inf.    Dual Inf.      Time
    2835    0.0000000e+00   0.000000e+00   0.000000e+00     37s
    2835    0.0000000e+00   0.000000e+00   0.000000e+00     37s

Solved in 2835 iterations and 36.81 seconds
Optimal objective  0.000000000e+00
status: OPTIMAL
